Minimize
  obj: 0
Subject To
 
\true constraint
c0:  + 378 x0 + 393 x1 + 18 x2 + 249 x3 + 958 x4 + 473 x5 + 844 x6 + 993 x7 + 956 x8 + 370 x9 + 150 x10 + 662 x11 + 289 x12 + 149 x13 + 921 x14 + 168 x15 + 887 x16 + 253 x17 + 963 x18 + 75 x19 + 973 x20 + 338 x21 + 979 x22 + 823 x23 + 635 x24 + 483 x25 + 407 x26 + 351 x27 + 238 x28 + 424 x29 + 953 x30 + 615 x31 + 816 x32 + 971 x33 + 863 x34 + 774 x35 + 444 x36 + 707 x37 + 766 x38 + 399 x39 <= 11554
 
\multiple objectives
c1:  - 820 x0 - 507 x1 - 89 x2 - 786 x3 - 342 x4 - 812 x5 - 919 x6 - 278 x7 - 195 x8 - 861 x9 - 351 x10 - 447 x11 - 21 x12 - 38 x13 - 130 x14 - 349 x15 - 725 x16 - 530 x17 - 687 x18 - 927 x19 - 845 x20 - 120 x21 - 58 x22 - 286 x23 - 626 x24 - 608 x25 - 321 x26 - 752 x27 - 624 x28 - 970 x29 - 59 x30 - 444 x31 - 476 x32 - 147 x33 - 229 x34 - 817 x35 - 959 x36 - 148 x37 - 94 x38 - 154 x39 < 1
c2:  - 8 x0 - 445 x1 - 600 x2 - 29 x3 - 482 x4 - 730 x5 - 377 x6 - 207 x7 - 259 x8 - 63 x9 - 134 x10 - 104 x11 - 183 x12 - 191 x13 - 389 x14 - 809 x15 - 799 x16 - 709 x17 - 560 x18 - 423 x19 - 679 x20 - 618 x21 - 866 x22 - 154 x23 - 765 x24 - 95 x25 - 971 x26 - 723 x27 - 242 x28 - 65 x29 - 877 x30 - 250 x31 - 509 x32 - 477 x33 - 278 x34 - 990 x35 - 206 x36 - 655 x37 - 196 x38 - 464 x39 < 2
c3:  - 718 x0 - 329 x1 - 567 x2 - 900 x3 - 520 x4 - 956 x5 - 709 x6 - 318 x7 - 665 x8 - 268 x9 - 740 x10 - 343 x11 - 885 x12 - 606 x13 - 497 x14 - 650 x15 - 700 x16 - 467 x17 - 373 x18 - 942 x19 - 531 x20 - 249 x21 - 191 x22 - 39 x23 - 725 x24 - 469 x25 - 29 x26 - 930 x27 - 124 x28 - 224 x29 - 394 x30 - 841 x31 - 553 x32 - 961 x33 - 741 x34 - 72 x35 - 916 x36 - 449 x37 - 390 x38 - 581 x39 < 3
c4:  - 717 x0 - 130 x1 - 923 x2 - 601 x3 - 735 x4 - 419 x5 - 251 x6 - 434 x7 - 886 x8 - 623 x9 - 375 x10 - 416 x11 - 871 x12 - 566 x13 - 455 x14 - 596 x15 - 35 x16 - 483 x17 - 526 x18 - 158 x19 - 707 x20 - 920 x21 - 999 x22 - 260 x23 - 880 x24 - 739 x25 - 332 x26 - 795 x27 - 188 x28 - 721 x29 - 375 x30 - 904 x31 - 850 x32 - 298 x33 - 505 x34 - 584 x35 - 717 x36 - 755 x37 - 18 x38 - 602 x39 < 4

BINARY
x0 x1 x2 x3 x4 x5 x6 x7 x8 x9 x10 x11 x12 x13 x14 x15 x16 x17 x18 x19 x20 x21 x22 x23 x24 x25 x26 x27 x28 x29 x30 x31 x32 x33 x34 x35 x36 x37 x38 x39
End
